NAME : netgen20-2-15
COMMENT : Generated using the function generateClusteredNetwork from the R-package netgen (Bossek,2015) - Number of clusters: 2
TYPE : TSP
DIMENSION : 20
EDGE_WEIGHT_TYPE : EUC_2D
NODE_COORD_SECTION
1 28.5366763004 94.7376132255
2 24.1203976033 98.611721098
3 37.5311138023 98.8347919464
4 27.0328989599 74.0842391782
5 22.7007936902 79.6900531515
6 17.7248137379 83.8273512769
7 5.7529560829 95.0742485653
8 18.7774716275 98.2642240849
9 17.2193685924 83.9053910584
10 16.4600371793 98.0103761177
11 75.0968205355 18.6975553871
12 83.8906440209 26.9711717136
13 92.502587037 6.3096620223
14 72.0076416492 19.0446348522
15 83.4616178441 8.058117486
16 86.2067069385 17.6908122006
17 95.5680452417 16.9029694603
18 91.692958735 19.6275265779
19 87.5292684029 23.0236702268
20 86.3389487806 23.9413647782
EOF
